76
678
90
275
498
440
420
137
454
182
174
117
367
56
61
650
427
72
550
304
284
263
59
1051
176
93
74
92
98
87
105
268
259
268
52
208
103
377
326
120
358
290
60
210
2335
972
464
170
484
414
46
155
102
169
132
302
72
515
113
408
168
501
368
0
387
104
165
354
159
148
513
321
106
242
240
139
167
43
56
81
1711
176
390
143
448
753
30
181
273
74
218
178
188
399
148
633
120
174
1355
551
